# Objective value = 6
y 6
x1 0
r1 0
y1 3
p12 0
q12 0
p13 0
q13 0
p14 0
q14 0
p15 0
q15 0
p16 1
q16 1
x2 7
r2 0
y2 0
p23 1
q23 0
p24 1
q24 0
p25 0
q25 1
p26 1
q26 0
x3 5
r3 0
y3 0
p34 1
q34 0
p35 0
q35 1
p36 1
q36 0
x4 4
r4 1
y4 0
p45 0
q45 1
p46 1
q46 0
x5 4
r5 0
y5 3
p56 1
q56 0
x6 0
r6 0
y6 0
